solution status: optimal solution found
objective value:                                   19
x13                                                 1 	(obj:1)
x15                                                 1 	(obj:1)
x16                                                 1 	(obj:1)
x17                                                 1 	(obj:1)
x19                                                 1 	(obj:1)
x29                                                 1 	(obj:1)
x30                                                 1 	(obj:1)
x31                                                 1 	(obj:1)
x32                                                 1 	(obj:1)
x37                                                 1 	(obj:1)
x38                                                 1 	(obj:1)
x39                                                 1 	(obj:1)
x40                                                 1 	(obj:1)
x41                                                 1 	(obj:1)
x43                                                 1 	(obj:1)
x45                                                 1 	(obj:1)
x46                                                 1 	(obj:1)
x47                                                 1 	(obj:1)
x48                                                 1 	(obj:1)
thing.thing.elute_y                                16 	(obj:0)
thing.thing.elute_z                                17 	(obj:0)
thing.thing.chamber[0].thingy.v4_y                   17 	(obj:0)
thing.thing.chamber[0].thingy.v4_z                   15 	(obj:0)
thing.thing.chamber[0].thingy.v8_y                   14 	(obj:0)
thing.thing.chamber[0].thingy.v8_z                   16 	(obj:0)
thing.thing.chamber[0].thingy.v6_y                   17 	(obj:0)
thing.thing.chamber[0].thingy.v6_z                   16 	(obj:0)
thing.thing.lysis_y                                16 	(obj:0)
thing.thing.lysis_z                                16 	(obj:0)
thing.thing.wash_y                                 16 	(obj:0)
thing.thing.wash_z                                 15 	(obj:0)
